Version identifier: 22.1.0.0 | 2022-03-09 | 1a383f8ce
CPXPARAM_Read_DataCheck                          1
1 of 1 MIP starts provided solutions.
MIP start 'm1' defined initial solution with objective 80.0000.
Tried aggregator 3 times.
MIP Presolve eliminated 196214 rows and 13167 columns.
MIP Presolve modified 1849 coefficients.
Aggregator did 185247 substitutions.
Reduced MIP has 15571 rows, 189426 columns, and 394786 nonzeros.
Reduced MIP has 189378 binaries, 48 generals, 0 SOSs, and 0 indicators.
Presolve time = 2.87 sec. (2771.57 ticks)
Tried aggregator 1 time.
Detecting symmetries...
Reduced MIP has 15571 rows, 189426 columns, and 394786 nonzeros.
Reduced MIP has 189378 binaries, 48 generals, 0 SOSs, and 0 indicators.
Presolve time = 0.57 sec. (298.73 ticks)
Probing fixed 72 vars, tightened 0 bounds.
Probing changed sense of 19 constraints.
Probing time = 0.36 sec. (49.28 ticks)
Clique table members: 382793.
MIP emphasis: balance optimality and feasibility.
MIP search method: dynamic search.
Parallel mode: deterministic, using up to 8 threads.
Root relaxation solution time = 2.03 sec. (1352.51 ticks)

        Nodes                                         Cuts/
   Node  Left     Objective  IInf  Best Integer    Best Bound    ItCnt     Gap

*     0+    0                           80.0000        0.0000           100.00%
      0     0       48.4004 11706       80.0000       48.4004       27   39.50%
      0     0       79.0000  1455       80.0000     Fract: 31    23407    1.25%
      0     0       79.0000  1074       80.0000      Cuts: 93    72432    1.25%

Repeating presolve.
Tried aggregator 3 times.
MIP Presolve eliminated 3201 rows and 104532 columns.
MIP Presolve modified 6 coefficients.
Aggregator did 2490 substitutions.
Reduced MIP has 9880 rows, 82404 columns, and 174039 nonzeros.
Reduced MIP has 82404 binaries, 0 generals, 0 SOSs, and 0 indicators.
Presolve time = 0.41 sec. (360.54 ticks)
Tried aggregator 2 times.
Detecting symmetries...
Aggregator did 5 substitutions.
Reduced MIP has 9875 rows, 82399 columns, and 174034 nonzeros.
Reduced MIP has 82399 binaries, 0 generals, 0 SOSs, and 0 indicators.
Presolve time = 0.18 sec. (146.10 ticks)
Represolve time = 0.81 sec. (698.02 ticks)

        Nodes                                         Cuts/
   Node  Left     Objective  IInf  Best Integer    Best Bound    ItCnt     Gap

      0     1  -1.00000e+37     0       80.0000       79.0000    72432    1.25%

Root node processing (before b&c):
  Real time             =  238.98 sec. (124298.50 ticks)
Parallel b&c, 8 threads:
  Real time             =    0.00 sec. (0.00 ticks)
  Sync time (average)   =    0.00 sec.
  Wait time (average)   =    0.00 sec.
                          ------------
Total (root+branch&cut) =  238.98 sec. (124298.50 ticks)
